20-lesson
include "20-lesson.dzn"

Running lesson-schedule.mzn
LESSONS SCHEDULE
Day          - Room   - Hour    - Lesson  

"Monday    " - " 001" - " 8:00" - "t19        "
             -        - " 9:00" - "t19        "
             -        - "10:00" - "t19        "
             -        - "11:00" - "t8         "
             -        - "12:00" - "t8         "
             -        -  13:00  -  Lunch break 
             -        - "14:00" -  
             -        - "15:00" -  
             -        - "16:00" -  
             -        - "17:00" -  
             -        - "18:00" -  
             ----------------------------------
             - " 002" - " 8:00" - "t12        "
             -        - " 9:00" - "t12        "
             -        - "10:00" - "t12        "
             -        - "11:00" - "t20        "
             -        - "12:00" - "t20        "
             -        -  13:00  -  Lunch break 
             -        - "14:00" -  
             -        - "15:00" -  
             -        - "16:00" -  
             -        - "17:00" - "t16        "
             -        - "18:00" - "t16        "
             ----------------------------------
             - " 003" - " 8:00" - "t3         "
             -        - " 9:00" - "t3         "
             -        - "10:00" - "t3         "
             -        - "11:00" - "t5         "
             -        - "12:00" - "t5         "
             -        -  13:00  -  Lunch break 
             -        - "14:00" -  
             -        - "15:00" -  
             -        - "16:00" -  
             -        - "17:00" -  
             -        - "18:00" -  
             ----------------------------------
             - " 004" - " 8:00" - "t17        "
             -        - " 9:00" - "t17        "
             -        - "10:00" - "t17        "
             -        - "11:00" - "t6         "
             -        - "12:00" - "t6         "
             -        -  13:00  -  Lunch break 
             -        - "14:00" -  
             -        - "15:00" -  
             -        - "16:00" -  
             -        - "17:00" -  
             -        - "18:00" -  
 
"Tuesday   " - " 001" - " 8:00" -  
             -        - " 9:00" -  
             -        - "10:00" -  
             -        - "11:00" - "t18        "
             -        - "12:00" - "t18        "
             -        -  13:00  -  Lunch break 
             -        - "14:00" -  
             -        - "15:00" -  
             -        - "16:00" -  
             -        - "17:00" -  
             -        - "18:00" -  
             ----------------------------------
             - " 002" - " 8:00" - "t11        "
             -        - " 9:00" - "t11        "
             -        - "10:00" - "t11        "
             -        - "11:00" - "t16        "
             -        - "12:00" - "t16        "
             -        -  13:00  -  Lunch break 
             -        - "14:00" -  
             -        - "15:00" -  
             -        - "16:00" -  
             -        - "17:00" -  
             -        - "18:00" -  
             ----------------------------------
             - " 003" - " 8:00" - "t15        "
             -        - " 9:00" - "t15        "
             -        - "10:00" - "t15        "
             -        - "11:00" - "t13        "
             -        - "12:00" - "t13        "
             -        -  13:00  -  Lunch break 
             -        - "14:00" -  
             -        - "15:00" -  
             -        - "16:00" -  
             -        - "17:00" -  
             -        - "18:00" -  
             ----------------------------------
             - " 004" - " 8:00" - "t10        "
             -        - " 9:00" - "t10        "
             -        - "10:00" - "t10        "
             -        - "11:00" -  
             -        - "12:00" -  
             -        -  13:00  -  Lunch break 
             -        - "14:00" -  
             -        - "15:00" -  
             -        - "16:00" -  
             -        - "17:00" - "t17        "
             -        - "18:00" - "t17        "
 
"Wednesday " - " 001" - " 8:00" - "t8         "
             -        - " 9:00" - "t8         "
             -        - "10:00" - "t8         "
             -        - "11:00" - "t1         "
             -        - "12:00" - "t1         "
             -        -  13:00  -  Lunch break 
             -        - "14:00" -  
             -        - "15:00" -  
             -        - "16:00" -  
             -        - "17:00" -  
             -        - "18:00" -  
             ----------------------------------
             - " 002" - " 8:00" - "t7         "
             -        - " 9:00" - "t7         "
             -        - "10:00" - "t7         "
             -        - "11:00" - "t11        "
             -        - "12:00" - "t11        "
             -        -  13:00  -  Lunch break 
             -        - "14:00" -  
             -        - "15:00" -  
             -        - "16:00" -  
             -        - "17:00" -  
             -        - "18:00" -  
             ----------------------------------
             - " 003" - " 8:00" - "t5         "
             -        - " 9:00" - "t5         "
             -        - "10:00" - "t5         "
             -        - "11:00" - "t2         "
             -        - "12:00" - "t2         "
             -        -  13:00  -  Lunch break 
             -        - "14:00" -  
             -        - "15:00" -  
             -        - "16:00" -  
             -        - "17:00" -  
             -        - "18:00" -  
             ----------------------------------
             - " 004" - " 8:00" - "t4         "
             -        - " 9:00" - "t4         "
             -        - "10:00" - "t4         "
             -        - "11:00" - "t12        "
             -        - "12:00" - "t12        "
             -        -  13:00  -  Lunch break 
             -        - "14:00" -  
             -        - "15:00" -  
             -        - "16:00" -  
             -        - "17:00" -  
             -        - "18:00" -  
 
"Thursday  " - " 001" - " 8:00" - "t13        "
             -        - " 9:00" - "t13        "
             -        - "10:00" - "t13        "
             -        - "11:00" - "t14        "
             -        - "12:00" - "t14        "
             -        -  13:00  -  Lunch break 
             -        - "14:00" -  
             -        - "15:00" -  
             -        - "16:00" -  
             -        - "17:00" -  
             -        - "18:00" -  
             ----------------------------------
             - " 002" - " 8:00" - "t20        "
             -        - " 9:00" - "t20        "
             -        - "10:00" - "t20        "
             -        - "11:00" -  
             -        - "12:00" -  
             -        -  13:00  -  Lunch break 
             -        - "14:00" - "t2         "
             -        - "15:00" - "t2         "
             -        - "16:00" - "t2         "
             -        - "17:00" - "t10        "
             -        - "18:00" - "t10        "
             ----------------------------------
             - " 003" - " 8:00" - "t1         "
             -        - " 9:00" - "t1         "
             -        - "10:00" - "t1         "
             -        - "11:00" - "t4         "
             -        - "12:00" - "t4         "
             -        -  13:00  -  Lunch break 
             -        - "14:00" -  
             -        - "15:00" -  
             -        - "16:00" -  
             -        - "17:00" - "t15        "
             -        - "18:00" - "t15        "
             ----------------------------------
             - " 004" - " 8:00" - "t18        "
             -        - " 9:00" - "t18        "
             -        - "10:00" - "t18        "
             -        - "11:00" - "t7         "
             -        - "12:00" - "t7         "
             -        -  13:00  -  Lunch break 
             -        - "14:00" - "t6         "
             -        - "15:00" - "t6         "
             -        - "16:00" - "t6         "
             -        - "17:00" -  
             -        - "18:00" -  
 
"Friday    " - " 001" - " 8:00" - "t16        "
             -        - " 9:00" - "t16        "
             -        - "10:00" - "t16        "
             -        - "11:00" - "t6         "
             -        - "12:00" - "t6         "
             -        -  13:00  -  Lunch break 
             -        - "14:00" -  
             -        - "15:00" -  
             -        - "16:00" -  
             -        - "17:00" - "t7         "
             -        - "18:00" - "t7         "
             ----------------------------------
             - " 002" - " 8:00" -  
             -        - " 9:00" -  
             -        - "10:00" -  
             -        - "11:00" - "t19        "
             -        - "12:00" - "t19        "
             -        -  13:00  -  Lunch break 
             -        - "14:00" -  
             -        - "15:00" -  
             -        - "16:00" -  
             -        - "17:00" -  
             -        - "18:00" -  
             ----------------------------------
             - " 003" - " 8:00" - "t14        "
             -        - " 9:00" - "t14        "
             -        - "10:00" - "t14        "
             -        - "11:00" - "t3         "
             -        - "12:00" - "t3         "
             -        -  13:00  -  Lunch break 
             -        - "14:00" -  
             -        - "15:00" -  
             -        - "16:00" -  
             -        - "17:00" -  
             -        - "18:00" -  
             ----------------------------------
             - " 004" - " 8:00" - "t9         "
             -        - " 9:00" - "t9         "
             -        - "10:00" - "t9         "
             -        - "11:00" - "t12        "
             -        - "12:00" - "t12        "
             -        -  13:00  -  Lunch break 
             -        - "14:00" -  
             -        - "15:00" -  
             -        - "16:00" -  
             -        - "17:00" -  
             -        - "18:00" -  
 
----------
==========
Finished in 23s 932msec